g3 0 1 0	# problem d7n5R0R6d05d05
 5 5 1 0 0	# vars, constraints, objectives, ranges, eqns
 4 1	# nonlinear constraints, objectives
 0 0	# network constraints: nonlinear, linear
 5 5 5	# nonlinear vars in constraints, objectives, both
 0 0 0 1	# linear network variables; functions; arith, flags
 0 0 0 0 0	# discrete variables: binary, integer, nonlinear (b,c,o)
 25 5	# nonzeros in Jacobian, gradients
 0 0	# max name lengths: constraints, variables
 0 0 0 0 0	# common exprs: b,c,o,c1,o1
b
0 0.87 2.9
0 0.64 2.05
0 0.31 2.49
0 0.21 2.26
0 0.16 2.57
r
2 54.538
2 194.745
2 677.389
2 3239.28
2 37.526
C0
o54
4
o2
o2
n2.06
v0
v0
o2
o2
n3.14
v0
v1
o2
o2
n8.33
v0
v2
o2
o2
n1.7
v1
v2
C1
o54
20
o2
o2
n6
v0
v0
o16
o2
o2
n5.78
v0
v1
o2
o2
n7.63
v0
v2
o16
o2
o2
n0.57
v1
v2
o2
o2
o2
n1.22
v0
v0
v2
o2
o2
o2
n0.1
v0
v1
v3
o2
o2
o2
n2.39
v0
v2
v3
o2
o2
o2
n2.06
v0
v3
v4
o2
o2
o2
n4.88
v1
v1
v1
o2
o2
o2
n3.22
v1
v1
v4
o2
o2
o2
n6.58
v1
v2
v3
o2
o2
o2
n5.75
v1
v2
v4
o2
o2
o2
n8.3
v1
v4
v4
o2
o2
o2
n8.94
v2
v2
v2
o2
o2
o2
n1.96
v2
v2
v3
o2
o2
o2
n5.47
v2
v2
v4
o16
o2
o2
o2
n9.78
v2
v3
v3
o2
o2
o2
n6.39
v2
v4
v4
o2
o2
o2
n0.93
v3
v3
v4
o2
o2
o2
n3.63
v3
v4
v4
C2
o54
57
o2
o2
n6.69
v0
v0
o2
o2
n3.82
v0
v1
o16
o2
o2
n8.29
v0
v2
o2
o2
n5.67
v1
v2
o2
o2
o2
n9.16
v0
v0
v2
o2
o2
o2
n7.08
v0
v1
v3
o2
o2
o2
n2.68
v0
v2
v3
o16
o2
o2
o2
n2.64
v0
v3
v4
o2
o2
o2
n7.4
v1
v1
v1
o16
o2
o2
o2
n5.49
v1
v1
v4
o2
o2
o2
n7.29
v1
v2
v3
o2
o2
o2
n2
v1
v2
v4
o16
o2
o2
o2
n6.19
v1
v4
v4
o2
o2
o2
n4.62
v2
v2
v2
o16
o2
o2
o2
n5.63
v2
v2
v3
o2
o2
o2
n4.32
v2
v2
v4
o2
o2
o2
n9.96
v2
v3
v3
o2
o2
o2
n9.43
v2
v4
v4
o2
o2
o2
n7.87
v3
v3
v4
o2
o2
o2
n2.24
v3
v4
v4
o2
o2
o2
o2
n4.54
v0
v0
v0
v1
o2
o2
o2
o2
n0.01
v0
v0
v0
v2
o2
o2
o2
o2
n3.15
v0
v0
v1
v2
o16
o2
o2
o2
o2
n1.96
v0
v0
v1
v4
o2
o2
o2
o2
n0.18
v0
v0
v2
v2
o16
o2
o2
o2
o2
n8.72
v0
v0
v2
v4
o2
o2
o2
o2
n3.26
v0
v1
v1
v1
o2
o2
o2
o2
n5.93
v0
v1
v1
v3
o2
o2
o2
o2
n5.82
v0
v1
v1
v4
o2
o2
o2
o2
n8.44
v0
v1
v2
v3
o2
o2
o2
o2
n7.52
v0
v1
v2
v4
o2
o2
o2
o2
n6.77
v0
v1
v3
v3
o2
o2
o2
o2
n4.55
v0
v1
v3
v4
o2
o2
o2
o2
n2.22
v0
v1
v4
v4
o2
o2
o2
o2
n8.88
v0
v2
v2
v2
o2
o2
o2
o2
n2.49
v0
v2
v2
v3
o2
o2
o2
o2
n0.43
v0
v2
v3
v3
o2
o2
o2
o2
n4.02
v0
v2
v3
v4
o2
o2
o2
o2
n1.35
v0
v2
v4
v4
o16
o2
o2
o2
o2
n2.93
v0
v3
v3
v4
o2
o2
o2
o2
n6.43
v1
v1
v1
v4
o2
o2
o2
o2
n0.85
v1
v1
v3
v3
o2
o2
o2
o2
n8.6
v1
v1
v3
v4
o2
o2
o2
o2
n7.45
v1
v2
v2
v2
o2
o2
o2
o2
n3.76
v1
v2
v2
v3
o2
o2
o2
o2
n6.04
v1
v2
v3
v4
o2
o2
o2
o2
n3.86
v1
v4
v4
v4
o2
o2
o2
o2
n3.88
v2
v2
v2
v2
o2
o2
o2
o2
n2.33
v2
v2
v3
v4
o16
o2
o2
o2
o2
n3.83
v2
v3
v3
v3
o2
o2
o2
o2
n1.02
v2
v3
v3
v4
o2
o2
o2
o2
n8.71
v2
v3
v4
v4
o2
o2
o2
o2
n2.51
v2
v4
v4
v4
o2
o2
o2
o2
n5.2
v3
v3
v3
v3
o2
o2
o2
o2
n7.06
v3
v3
v3
v4
o2
o2
o2
o2
n8.55
v3
v3
v4
v4
o16
o2
o2
o2
o2
n8.15
v4
v4
v4
v4
C3
o54
125
o2
o2
n2.08
v0
v0
o2
o2
n7.58
v0
v1
o16
o2
o2
n5.45
v0
v2
o2
o2
n8.7
v1
v2
o2
o2
o2
n9.3
v0
v0
v2
o2
o2
o2
n1.03
v0
v1
v3
o2
o2
o2
n6.77
v0
v2
v3
o2
o2
o2
n2.44
v0
v3
v4
o2
o2
o2
n5.37
v1
v1
v1
o2
o2
o2
n9.63
v1
v1
v4
o2
o2
o2
n7.66
v1
v2
v3
o2
o2
o2
n6.79
v1
v2
v4
o2
o2
o2
n2.12
v1
v4
v4
o2
o2
o2
n5.94
v2
v2
v2
o2
o2
o2
n8.24
v2
v2
v3
o2
o2
o2
n5.32
v2
v2
v4
o2
o2
o2
n4.95
v2
v3
v3
o2
o2
o2
n7.57
v2
v4
v4
o2
o2
o2
n6.38
v3
v3
v4
o2
o2
o2
n4.1
v3
v4
v4
o2
o2
o2
o2
n4.04
v0
v0
v0
v1
o2
o2
o2
o2
n7.36
v0
v0
v0
v2
o2
o2
o2
o2
n9.51
v0
v0
v1
v2
o16
o2
o2
o2
o2
n7.46
v0
v0
v1
v4
o2
o2
o2
o2
n6.68
v0
v0
v2
v2
o2
o2
o2
o2
n4.79
v0
v0
v2
v4
o2
o2
o2
o2
n7.59
v0
v1
v1
v1
o2
o2
o2
o2
n5.11
v0
v1
v1
v3
o2
o2
o2
o2
n0.94
v0
v1
v1
v4
o2
o2
o2
o2
n8.75
v0
v1
v2
v3
o2
o2
o2
o2
n7.37
v0
v1
v2
v4
o2
o2
o2
o2
n0.44
v0
v1
v3
v3
o2
o2
o2
o2
n0.51
v0
v1
v3
v4
o2
o2
o2
o2
n1.4
v0
v1
v4
v4
o2
o2
o2
o2
n7.91
v0
v2
v2
v2
o2
o2
o2
o2
n0.09
v0
v2
v2
v3
o2
o2
o2
o2
n0.89
v0
v2
v3
v3
o16
o2
o2
o2
o2
n3.43
v0
v2
v3
v4
o2
o2
o2
o2
n7.35
v0
v2
v4
v4
o2
o2
o2
o2
n4.78
v0
v3
v3
v4
o2
o2
o2
o2
n6.71
v1
v1
v1
v4
o2
o2
o2
o2
n0.48
v1
v1
v3
v3
o2
o2
o2
o2
n0.88
v1
v1
v3
v4
o2
o2
o2
o2
n1.37
v1
v2
v2
v2
o2
o2
o2
o2
n0.42
v1
v2
v2
v3
o2
o2
o2
o2
n0.85
v1
v2
v3
v4
o2
o2
o2
o2
n0.02
v1
v4
v4
v4
o2
o2
o2
o2
n6.17
v2
v2
v2
v2
o2
o2
o2
o2
n2.14
v2
v2
v3
v4
o2
o2
o2
o2
n4.39
v2
v3
v3
v3
o2
o2
o2
o2
n3.14
v2
v3
v3
v4
o2
o2
o2
o2
n9.56
v2
v3
v4
v4
o16
o2
o2
o2
o2
n0.79
v2
v4
v4
v4
o2
o2
o2
o2
n2.8
v3
v3
v3
v3
o2
o2
o2
o2
n7.21
v3
v3
v3
v4
o2
o2
o2
o2
n1.74
v3
v3
v4
v4
o2
o2
o2
o2
n6.48
v4
v4
v4
v4
o16
o2
o2
o2
o2
o2
n0.95
v0
v0
v0
v0
v1
o16
o2
o2
o2
o2
o2
n0.78
v0
v0
v0
v0
v3
o2
o2
o2
o2
o2
n9.85
v0
v0
v0
v1
v1
o2
o2
o2
o2
o2
n4.18
v0
v0
v0
v1
v2
o2
o2
o2
o2
o2
n9.69
v0
v0
v0
v1
v3
o2
o2
o2
o2
o2
n8.27
v0
v0
v0
v1
v4
o2
o2
o2
o2
o2
n6.27
v0
v0
v0
v2
v2
o2
o2
o2
o2
o2
n8.52
v0
v0
v0
v2
v3
o2
o2
o2
o2
o2
n9.72
v0
v0
v0
v2
v4
o2
o2
o2
o2
o2
n5.48
v0
v0
v0
v3
v3
o2
o2
o2
o2
o2
n8.2
v0
v0
v0
v3
v4
o2
o2
o2
o2
o2
n10
v0
v0
v1
v1
v1
o2
o2
o2
o2
o2
n6.81
v0
v0
v1
v1
v2
o2
o2
o2
o2
o2
n6.33
v0
v0
v1
v2
v3
o2
o2
o2
o2
o2
n8.48
v0
v0
v1
v4
v4
o2
o2
o2
o2
o2
n2.34
v0
v0
v2
v2
v2
o2
o2
o2
o2
o2
n8.26
v0
v0
v2
v2
v3
o2
o2
o2
o2
o2
n0.86
v0
v0
v2
v3
v4
o2
o2
o2
o2
o2
n7.65
v0
v0
v3
v3
v3
o2
o2
o2
o2
o2
n1.12
v0
v0
v3
v3
v4
o2
o2
o2
o2
o2
n0.55
v0
v0
v3
v4
v4
o2
o2
o2
o2
o2
n4.52
v0
v0
v4
v4
v4
o2
o2
o2
o2
o2
n7.28
v0
v1
v1
v1
v1
o2
o2
o2
o2
o2
n3.64
v0
v1
v1
v2
v2
o2
o2
o2
o2
o2
n8.35
v0
v1
v1
v2
v4
o2
o2
o2
o2
o2
n8.65
v0
v1
v1
v3
v3
o2
o2
o2
o2
o2
n4.52
v0
v1
v1
v3
v4
o2
o2
o2
o2
o2
n0.1
v0
v1
v2
v2
v2
o2
o2
o2
o2
o2
n4.66
v0
v1
v2
v3
v4
o2
o2
o2
o2
o2
n2.26
v0
v1
v3
v4
v4
o2
o2
o2
o2
o2
n7.97
v0
v1
v4
v4
v4
o2
o2
o2
o2
o2
n5.94
v0
v2
v2
v2
v3
o2
o2
o2
o2
o2
n2.28
v0
v2
v2
v3
v3
o2
o2
o2
o2
o2
n5
v0
v2
v4
v4
v4
o2
o2
o2
o2
o2
n4.7
v0
v3
v3
v3
v4
o2
o2
o2
o2
o2
n5.48
v0
v3
v4
v4
v4
o2
o2
o2
o2
o2
n6.5
v0
v4
v4
v4
v4
o2
o2
o2
o2
o2
n1.47
v1
v1
v1
v1
v1
o2
o2
o2
o2
o2
n8.57
v1
v1
v1
v1
v2
o2
o2
o2
o2
o2
n6.83
v1
v1
v1
v1
v3
o2
o2
o2
o2
o2
n9.06
v1
v1
v1
v2
v2
o2
o2
o2
o2
o2
n6.69
v1
v1
v1
v2
v3
o2
o2
o2
o2
o2
n9.85
v1
v1
v1
v3
v3
o2
o2
o2
o2
o2
n7.98
v1
v1
v1
v3
v4
o2
o2
o2
o2
o2
n3.31
v1
v1
v2
v2
v2
o2
o2
o2
o2
o2
n2.86
v1
v1
v2
v2
v3
o16
o2
o2
o2
o2
o2
n5.99
v1
v1
v2
v3
v3
o2
o2
o2
o2
o2
n4.24
v1
v1
v3
v3
v4
o2
o2
o2
o2
o2
n0.7
v1
v1
v4
v4
v4
o2
o2
o2
o2
o2
n7.4
v1
v2
v2
v2
v2
o2
o2
o2
o2
o2
n3.71
v1
v2
v3
v3
v4
o2
o2
o2
o2
o2
n6.8
v1
v3
v3
v3
v3
o2
o2
o2
o2
o2
n8.44
v1
v3
v3
v3
v4
o2
o2
o2
o2
o2
n2.15
v1
v4
v4
v4
v4
o2
o2
o2
o2
o2
n2.33
v2
v2
v2
v2
v2
o2
o2
o2
o2
o2
n2.69
v2
v2
v2
v2
v3
o2
o2
o2
o2
o2
n8.45
v2
v2
v2
v2
v4
o2
o2
o2
o2
o2
n3.94
v2
v2
v2
v3
v3
o2
o2
o2
o2
o2
n8.31
v2
v2
v2
v3
v4
o16
o2
o2
o2
o2
o2
n5.84
v2
v2
v2
v4
v4
o16
o2
o2
o2
o2
o2
n7.58
v2
v2
v3
v4
v4
o2
o2
o2
o2
o2
n6.32
v2
v2
v4
v4
v4
o2
o2
o2
o2
o2
n1.11
v2
v3
v3
v4
v4
o2
o2
o2
o2
o2
n9.52
v3
v3
v3
v3
v3
o2
o2
o2
o2
o2
n9.03
v3
v3
v3
v3
v4
o2
o2
o2
o2
o2
n2.55
v3
v3
v3
v4
v4
o16
o2
o2
o2
o2
o2
n0.23
v3
v4
v4
v4
v4
o2
o2
o2
o2
o2
n9.95
v4
v4
v4
v4
v4
C4
n0
O0 0
o54
393
o2
o2
n2.85
v0
v0
o2
o2
n4.84
v0
v1
o2
o2
n4.08
v0
v2
o16
o2
o2
n7.37
v1
v2
o2
o2
o2
n1.62
v0
v0
v2
o2
o2
o2
n3.08
v0
v1
v3
o2
o2
o2
n7.16
v0
v2
v3
o2
o2
o2
n6.13
v0
v3
v4
o2
o2
o2
n6.9
v1
v1
v1
o2
o2
o2
n1.68
v1
v1
v4
o2
o2
o2
n3.12
v1
v2
v3
o2
o2
o2
n3.11
v1
v2
v4
o2
o2
o2
n1.81
v1
v4
v4
o2
o2
o2
n2.93
v2
v2
v2
o2
o2
o2
n2.76
v2
v2
v3
o2
o2
o2
n6.21
v2
v2
v4
o2
o2
o2
n3.8
v2
v3
v3
o2
o2
o2
n0.93
v2
v4
v4
o2
o2
o2
n5.57
v3
v3
v4
o2
o2
o2
n3.98
v3
v4
v4
o2
o2
o2
o2
n8.63
v0
v0
v0
v1
o2
o2
o2
o2
n7.1
v0
v0
v0
v2
o2
o2
o2
o2
n9.27
v0
v0
v1
v2
o2
o2
o2
o2
n1.75
v0
v0
v1
v4
o2
o2
o2
o2
n5.6
v0
v0
v2
v2
o2
o2
o2
o2
n6.9
v0
v0
v2
v4
o2
o2
o2
o2
n0.68
v0
v1
v1
v1
o2
o2
o2
o2
n9
v0
v1
v1
v3
o2
o2
o2
o2
n3.94
v0
v1
v1
v4
o2
o2
o2
o2
n7.88
v0
v1
v2
v3
o2
o2
o2
o2
n7.75
v0
v1
v2
v4
o2
o2
o2
o2
n8.02
v0
v1
v3
v3
o2
o2
o2
o2
n0.51
v0
v1
v3
v4
o2
o2
o2
o2
n8.9
v0
v1
v4
v4
o16
o2
o2
o2
o2
n2.9
v0
v2
v2
v2
o2
o2
o2
o2
n3.77
v0
v2
v2
v3
o16
o2
o2
o2
o2
n8.81
v0
v2
v3
v3
o2
o2
o2
o2
n0.68
v0
v2
v3
v4
o2
o2
o2
o2
n7.58
v0
v2
v4
v4
o2
o2
o2
o2
n5.02
v0
v3
v3
v4
o2
o2
o2
o2
n9.08
v1
v1
v1
v4
o16
o2
o2
o2
o2
n7.51
v1
v1
v3
v3
o2
o2
o2
o2
n8.1
v1
v1
v3
v4
o2
o2
o2
o2
n6.73
v1
v2
v2
v2
o2
o2
o2
o2
n9.82
v1
v2
v2
v3
o2
o2
o2
o2
n0.3
v1
v2
v3
v4
o2
o2
o2
o2
n2.69
v1
v4
v4
v4
o2
o2
o2
o2
n3.7
v2
v2
v2
v2
o2
o2
o2
o2
n0.46
v2
v2
v3
v4
o2
o2
o2
o2
n0.83
v2
v3
v3
v3
o16
o2
o2
o2
o2
n9.83
v2
v3
v3
v4
o2
o2
o2
o2
n5.41
v2
v3
v4
v4
o2
o2
o2
o2
n5.3
v2
v4
v4
v4
o2
o2
o2
o2
n7.22
v3
v3
v3
v3
o2
o2
o2
o2
n7.81
v3
v3
v3
v4
o2
o2
o2
o2
n2.22
v3
v3
v4
v4
o2
o2
o2
o2
n8.69
v4
v4
v4
v4
o2
o2
o2
o2
o2
n0.73
v0
v0
v0
v0
v1
o2
o2
o2
o2
o2
n5.55
v0
v0
v0
v0
v3
o2
o2
o2
o2
o2
n2.66
v0
v0
v0
v1
v1
o2
o2
o2
o2
o2
n1.53
v0
v0
v0
v1
v2
o2
o2
o2
o2
o2
n3.77
v0
v0
v0
v1
v3
o2
o2
o2
o2
o2
n4.7
v0
v0
v0
v1
v4
o2
o2
o2
o2
o2
n2.18
v0
v0
v0
v2
v2
o2
o2
o2
o2
o2
n8.91
v0
v0
v0
v2
v3
o16
o2
o2
o2
o2
o2
n9.11
v0
v0
v0
v2
v4
o16
o2
o2
o2
o2
o2
n2.91
v0
v0
v0
v3
v3
o2
o2
o2
o2
o2
n2.92
v0
v0
v0
v3
v4
o2
o2
o2
o2
o2
n9.07
v0
v0
v1
v1
v1
o2
o2
o2
o2
o2
n0.45
v0
v0
v1
v1
v2
o16
o2
o2
o2
o2
o2
n8.45
v0
v0
v1
v2
v3
o2
o2
o2
o2
o2
n4.91
v0
v0
v1
v4
v4
o2
o2
o2
o2
o2
n3.62
v0
v0
v2
v2
v2
o2
o2
o2
o2
o2
n4.13
v0
v0
v2
v2
v3
o2
o2
o2
o2
o2
n5.98
v0
v0
v2
v3
v4
o2
o2
o2
o2
o2
n8.44
v0
v0
v3
v3
v3
o2
o2
o2
o2
o2
n8.94
v0
v0
v3
v3
v4
o2
o2
o2
o2
o2
n2.16
v0
v0
v3
v4
v4
o2
o2
o2
o2
o2
n3.68
v0
v0
v4
v4
v4
o2
o2
o2
o2
o2
n7.69
v0
v1
v1
v1
v1
o2
o2
o2
o2
o2
n8.93
v0
v1
v1
v2
v2
o2
o2
o2
o2
o2
n6.46
v0
v1
v1
v2
v4
o2
o2
o2
o2
o2
n1.51
v0
v1
v1
v3
v3
o2
o2
o2
o2
o2
n5.59
v0
v1
v1
v3
v4
o2
o2
o2
o2
o2
n8.91
v0
v1
v2
v2
v2
o2
o2
o2
o2
o2
n4.41
v0
v1
v2
v3
v4
o2
o2
o2
o2
o2
n0.82
v0
v1
v3
v4
v4
o2
o2
o2
o2
o2
n9.99
v0
v1
v4
v4
v4
o2
o2
o2
o2
o2
n0.84
v0
v2
v2
v2
v3
o2
o2
o2
o2
o2
n5.56
v0
v2
v2
v3
v3
o2
o2
o2
o2
o2
n5.16
v0
v2
v4
v4
v4
o2
o2
o2
o2
o2
n1.03
v0
v3
v3
v3
v4
o2
o2
o2
o2
o2
n9.74
v0
v3
v4
v4
v4
o2
o2
o2
o2
o2
n9.65
v0
v4
v4
v4
v4
o2
o2
o2
o2
o2
n2.36
v1
v1
v1
v1
v1
o2
o2
o2
o2
o2
n9.77
v1
v1
v1
v1
v2
o2
o2
o2
o2
o2
n1.42
v1
v1
v1
v1
v3
o16
o2
o2
o2
o2
o2
n5.89
v1
v1
v1
v2
v2
o2
o2
o2
o2
o2
n7.8
v1
v1
v1
v2
v3
o2
o2
o2
o2
o2
n8.05
v1
v1
v1
v3
v3
o2
o2
o2
o2
o2
n1.41
v1
v1
v1
v3
v4
o2
o2
o2
o2
o2
n3.45
v1
v1
v2
v2
v2
o2
o2
o2
o2
o2
n9.07
v1
v1
v2
v2
v3
o2
o2
o2
o2
o2
n9.66
v1
v1
v2
v3
v3
o2
o2
o2
o2
o2
n5.15
v1
v1
v3
v3
v4
o2
o2
o2
o2
o2
n3.2
v1
v1
v4
v4
v4
o16
o2
o2
o2
o2
o2
n1.69
v1
v2
v2
v2
v2
o16
o2
o2
o2
o2
o2
n2.72
v1
v2
v3
v3
v4
o16
o2
o2
o2
o2
o2
n9.42
v1
v3
v3
v3
v3
o2
o2
o2
o2
o2
n0.77
v1
v3
v3
v3
v4
o2
o2
o2
o2
o2
n6.28
v1
v4
v4
v4
v4
o2
o2
o2
o2
o2
n3.28
v2
v2
v2
v2
v2
o2
o2
o2
o2
o2
n5.08
v2
v2
v2
v2
v3
o2
o2
o2
o2
o2
n0.74
v2
v2
v2
v2
v4
o2
o2
o2
o2
o2
n6.79
v2
v2
v2
v3
v3
o2
o2
o2
o2
o2
n0.23
v2
v2
v2
v3
v4
o2
o2
o2
o2
o2
n0.98
v2
v2
v2
v4
v4
o2
o2
o2
o2
o2
n2.22
v2
v2
v3
v4
v4
o2
o2
o2
o2
o2
n0.13
v2
v2
v4
v4
v4
o2
o2
o2
o2
o2
n1.43
v2
v3
v3
v4
v4
o2
o2
o2
o2
o2
n9.16
v3
v3
v3
v3
v3
o2
o2
o2
o2
o2
n5.54
v3
v3
v3
v3
v4
o2
o2
o2
o2
o2
n6.96
v3
v3
v3
v4
v4
o2
o2
o2
o2
o2
n1.08
v3
v4
v4
v4
v4
o2
o2
o2
o2
o2
n1.3
v4
v4
v4
v4
v4
o2
o2
o2
o2
o2
o2
n0.31
v0
v0
v0
v0
v0
v0
o2
o2
o2
o2
o2
o2
n3.79
v0
v0
v0
v0
v1
v1
o2
o2
o2
o2
o2
o2
n8.38
v0
v0
v0
v0
v1
v4
o2
o2
o2
o2
o2
o2
n6.43
v0
v0
v0
v0
v2
v4
o2
o2
o2
o2
o2
o2
n4.65
v0
v0
v0
v0
v3
v3
o2
o2
o2
o2
o2
o2
n6.27
v0
v0
v0
v0
v4
v4
o2
o2
o2
o2
o2
o2
n7.37
v0
v0
v0
v1
v1
v1
o2
o2
o2
o2
o2
o2
n9.83
v0
v0
v0
v1
v1
v2
o2
o2
o2
o2
o2
o2
n5.7
v0
v0
v0
v1
v1
v3
o2
o2
o2
o2
o2
o2
n3.76
v0
v0
v0
v1
v2
v3
o2
o2
o2
o2
o2
o2
n8.11
v0
v0
v0
v1
v2
v4
o2
o2
o2
o2
o2
o2
n3.29
v0
v0
v0
v1
v3
v3
o2
o2
o2
o2
o2
o2
n1.38
v0
v0
v0
v2
v2
v3
o2
o2
o2
o2
o2
o2
n5.18
v0
v0
v0
v2
v2
v4
o2
o2
o2
o2
o2
o2
n9.03
v0
v0
v0
v2
v3
v3
o2
o2
o2
o2
o2
o2
n6.51
v0
v0
v0
v2
v3
v4
o2
o2
o2
o2
o2
o2
n3.42
v0
v0
v0
v3
v3
v4
o2
o2
o2
o2
o2
o2
n6.06
v0
v0
v0
v3
v4
v4
o2
o2
o2
o2
o2
o2
n0.56
v0
v0
v1
v1
v1
v3
o2
o2
o2
o2
o2
o2
n9.79
v0
v0
v1
v1
v2
v2
o16
o2
o2
o2
o2
o2
o2
n1.58
v0
v0
v1
v1
v3
v3
o2
o2
o2
o2
o2
o2
n6.86
v0
v0
v1
v1
v4
v4
o2
o2
o2
o2
o2
o2
n0.05
v0
v0
v1
v2
v2
v2
o2
o2
o2
o2
o2
o2
n8
v0
v0
v1
v2
v3
v3
o16
o2
o2
o2
o2
o2
o2
n9.17
v0
v0
v1
v2
v3
v4
o2
o2
o2
o2
o2
o2
n2.54
v0
v0
v1
v3
v3
v4
o2
o2
o2
o2
o2
o2
n7.86
v0
v0
v1
v3
v4
v4
o2
o2
o2
o2
o2
o2
n5.79
v0
v0
v2
v2
v3
v4
o2
o2
o2
o2
o2
o2
n9.84
v0
v0
v2
v2
v4
v4
o2
o2
o2
o2
o2
o2
n3.38
v0
v0
v2
v3
v3
v3
o16
o2
o2
o2
o2
o2
o2
n4.78
v0
v0
v3
v3
v3
v4
o2
o2
o2
o2
o2
o2
n3.98
v0
v0
v3
v3
v4
v4
o2
o2
o2
o2
o2
o2
n5.54
v0
v1
v1
v1
v1
v1
o16
o2
o2
o2
o2
o2
o2
n7.07
v0
v1
v1
v1
v1
v2
o2
o2
o2
o2
o2
o2
n0.61
v0
v1
v1
v1
v2
v2
o2
o2
o2
o2
o2
o2
n7.3
v0
v1
v1
v1
v2
v3
o2
o2
o2
o2
o2
o2
n5.79
v0
v1
v1
v1
v3
v3
o2
o2
o2
o2
o2
o2
n2
v0
v1
v1
v1
v3
v4
o2
o2
o2
o2
o2
o2
n4.12
v0
v1
v1
v1
v4
v4
o2
o2
o2
o2
o2
o2
n3.34
v0
v1
v1
v2
v2
v3
o2
o2
o2
o2
o2
o2
n8.24
v0
v1
v1
v3
v3
v3
o2
o2
o2
o2
o2
o2
n1.85
v0
v1
v1
v3
v4
v4
o2
o2
o2
o2
o2
o2
n4.12
v0
v1
v2
v2
v2
v3
o2
o2
o2
o2
o2
o2
n2.69
v0
v1
v2
v2
v2
v4
o2
o2
o2
o2
o2
o2
n0.34
v0
v1
v2
v2
v3
v3
o2
o2
o2
o2
o2
o2
n1.39
v0
v1
v2
v2
v4
v4
o2
o2
o2
o2
o2
o2
n1.85
v0
v1
v3
v3
v4
v4
o16
o2
o2
o2
o2
o2
o2
n0.46
v0
v1
v4
v4
v4
v4
o2
o2
o2
o2
o2
o2
n2.41
v0
v2
v2
v2
v2
v4
o2
o2
o2
o2
o2
o2
n3.6
v0
v2
v2
v2
v3
v4
o2
o2
o2
o2
o2
o2
n4.64
v0
v2
v2
v2
v4
v4
o2
o2
o2
o2
o2
o2
n8.93
v0
v2
v2
v3
v3
v4
o2
o2
o2
o2
o2
o2
n1.88
v0
v2
v2
v3
v4
v4
o2
o2
o2
o2
o2
o2
n7.92
v0
v2
v2
v4
v4
v4
o2
o2
o2
o2
o2
o2
n0.78
v0
v2
v3
v3
v3
v4
o2
o2
o2
o2
o2
o2
n1.49
v0
v3
v3
v3
v3
v3
o2
o2
o2
o2
o2
o2
n8.81
v0
v3
v3
v4
v4
v4
o16
o2
o2
o2
o2
o2
o2
n9.88
v0
v4
v4
v4
v4
v4
o2
o2
o2
o2
o2
o2
n5.65
v1
v1
v1
v1
v1
v2
o2
o2
o2
o2
o2
o2
n7.86
v1
v1
v1
v1
v1
v4
o2
o2
o2
o2
o2
o2
n2.61
v1
v1
v1
v1
v2
v2
o2
o2
o2
o2
o2
o2
n1.87
v1
v1
v1
v1
v2
v3
o2
o2
o2
o2
o2
o2
n9.09
v1
v1
v1
v1
v3
v4
o2
o2
o2
o2
o2
o2
n0.53
v1
v1
v1
v2
v2
v3
o2
o2
o2
o2
o2
o2
n0.11
v1
v1
v1
v2
v3
v4
o2
o2
o2
o2
o2
o2
n5.26
v1
v1
v1
v2
v4
v4
o2
o2
o2
o2
o2
o2
n4.07
v1
v1
v1
v3
v3
v3
o2
o2
o2
o2
o2
o2
n2.43
v1
v1
v1
v3
v3
v4
o2
o2
o2
o2
o2
o2
n4.74
v1
v1
v1
v4
v4
v4
o2
o2
o2
o2
o2
o2
n3.69
v1
v1
v2
v2
v2
v4
o2
o2
o2
o2
o2
o2
n6.52
v1
v1
v2
v2
v3
v4
o2
o2
o2
o2
o2
o2
n5.93
v1
v1
v2
v2
v4
v4
o16
o2
o2
o2
o2
o2
o2
n7.11
v1
v1
v2
v3
v3
v3
o2
o2
o2
o2
o2
o2
n7.64
v1
v1
v2
v3
v3
v4
o2
o2
o2
o2
o2
o2
n6.52
v1
v1
v3
v3
v3
v3
o2
o2
o2
o2
o2
o2
n2.97
v1
v1
v3
v3
v4
v4
o2
o2
o2
o2
o2
o2
n6.72
v1
v2
v2
v2
v2
v4
o2
o2
o2
o2
o2
o2
n0.27
v1
v2
v2
v2
v3
v4
o2
o2
o2
o2
o2
o2
n0.65
v1
v2
v2
v3
v4
v4
o2
o2
o2
o2
o2
o2
n6.54
v1
v2
v3
v3
v3
v3
o2
o2
o2
o2
o2
o2
n5.01
v1
v2
v3
v3
v4
v4
o2
o2
o2
o2
o2
o2
n4.46
v1
v2
v3
v4
v4
v4
o2
o2
o2
o2
o2
o2
n5.62
v1
v3
v3
v3
v3
v3
o2
o2
o2
o2
o2
o2
n3.39
v1
v3
v3
v3
v3
v4
o16
o2
o2
o2
o2
o2
o2
n9.56
v2
v2
v2
v2
v2
v2
o16
o2
o2
o2
o2
o2
o2
n1.16
v2
v2
v2
v2
v3
v3
o2
o2
o2
o2
o2
o2
n3.15
v2
v2
v2
v2
v4
v4
o2
o2
o2
o2
o2
o2
n7.94
v2
v2
v2
v3
v3
v4
o16
o2
o2
o2
o2
o2
o2
n9.66
v2
v2
v2
v3
v4
v4
o2
o2
o2
o2
o2
o2
n8.95
v2
v2
v2
v4
v4
v4
o16
o2
o2
o2
o2
o2
o2
n6.13
v2
v2
v3
v3
v4
v4
o2
o2
o2
o2
o2
o2
n7.5
v2
v2
v3
v4
v4
v4
o2
o2
o2
o2
o2
o2
n3.02
v2
v2
v4
v4
v4
v4
o2
o2
o2
o2
o2
o2
n4.86
v2
v3
v3
v3
v3
v3
o16
o2
o2
o2
o2
o2
o2
n6
v2
v3
v3
v3
v4
v4
o2
o2
o2
o2
o2
o2
n8.7
v2
v3
v3
v4
v4
v4
o2
o2
o2
o2
o2
o2
n3.81
v2
v3
v4
v4
v4
v4
o2
o2
o2
o2
o2
o2
n6.42
v2
v4
v4
v4
v4
v4
o2
o2
o2
o2
o2
o2
n1.33
v3
v3
v3
v3
v3
v3
o2
o2
o2
o2
o2
o2
n5.19
v3
v3
v3
v3
v4
v4
o2
o2
o2
o2
o2
o2
n1.88
v3
v3
v3
v4
v4
v4
o2
o2
o2
o2
o2
o2
n5.02
v3
v3
v4
v4
v4
v4
o2
o2
o2
o2
o2
o2
n7.78
v3
v4
v4
v4
v4
v4
o2
o2
o2
o2
o2
o2
o2
n6.62
v0
v0
v0
v0
v0
v0
v1
o2
o2
o2
o2
o2
o2
o2
n3.33
v0
v0
v0
v0
v0
v0
v2
o2
o2
o2
o2
o2
o2
o2
n0.46
v0
v0
v0
v0
v0
v0
v3
o2
o2
o2
o2
o2
o2
o2
n9.18
v0
v0
v0
v0
v0
v1
v1
o2
o2
o2
o2
o2
o2
o2
n8.75
v0
v0
v0
v0
v0
v1
v2
o2
o2
o2
o2
o2
o2
o2
n2.2
v0
v0
v0
v0
v0
v2
v3
o16
o2
o2
o2
o2
o2
o2
o2
n6.74
v0
v0
v0
v0
v0
v2
v4
o2
o2
o2
o2
o2
o2
o2
n9.91
v0
v0
v0
v0
v0
v3
v4
o2
o2
o2
o2
o2
o2
o2
n4.99
v0
v0
v0
v0
v1
v1
v2
o2
o2
o2
o2
o2
o2
o2
n3.51
v0
v0
v0
v0
v1
v1
v4
o2
o2
o2
o2
o2
o2
o2
n9.2
v0
v0
v0
v0
v1
v2
v2
o16
o2
o2
o2
o2
o2
o2
o2
n8.58
v0
v0
v0
v0
v1
v2
v4
o2
o2
o2
o2
o2
o2
o2
n9.05
v0
v0
v0
v0
v1
v3
v3
o2
o2
o2
o2
o2
o2
o2
n7.53
v0
v0
v0
v0
v2
v2
v2
o2
o2
o2
o2
o2
o2
o2
n2.77
v0
v0
v0
v0
v2
v2
v3
o2
o2
o2
o2
o2
o2
o2
n2.87
v0
v0
v0
v1
v1
v1
v1
o2
o2
o2
o2
o2
o2
o2
n8.86
v0
v0
v0
v1
v1
v1
v2
o2
o2
o2
o2
o2
o2
o2
n5.27
v0
v0
v0
v1
v1
v2
v2
o2
o2
o2
o2
o2
o2
o2
n1.59
v0
v0
v0
v1
v1
v2
v3
o2
o2
o2
o2
o2
o2
o2
n5.67
v0
v0
v0
v1
v1
v2
v4
o16
o2
o2
o2
o2
o2
o2
o2
n1.83
v0
v0
v0
v1
v1
v4
v4
o2
o2
o2
o2
o2
o2
o2
n5.23
v0
v0
v0
v1
v2
v2
v4
o2
o2
o2
o2
o2
o2
o2
n9.8
v0
v0
v0
v1
v2
v3
v3
o2
o2
o2
o2
o2
o2
o2
n2.47
v0
v0
v0
v1
v2
v3
v4
o2
o2
o2
o2
o2
o2
o2
n1.24
v0
v0
v0
v1
v3
v3
v3
o2
o2
o2
o2
o2
o2
o2
n1.43
v0
v0
v0
v2
v2
v2
v3
o16
o2
o2
o2
o2
o2
o2
o2
n3.63
v0
v0
v0
v2
v2
v3
v3
o2
o2
o2
o2
o2
o2
o2
n0.02
v0
v0
v0
v2
v3
v3
v4
o2
o2
o2
o2
o2
o2
o2
n3.96
v0
v0
v0
v2
v4
v4
v4
o2
o2
o2
o2
o2
o2
o2
n2.65
v0
v0
v0
v3
v3
v3
v3
o16
o2
o2
o2
o2
o2
o2
o2
n4.7
v0
v0
v0
v3
v3
v3
v4
o2
o2
o2
o2
o2
o2
o2
n6.14
v0
v0
v0
v3
v3
v4
v4
o2
o2
o2
o2
o2
o2
o2
n9.4
v0
v0
v0
v3
v4
v4
v4
o2
o2
o2
o2
o2
o2
o2
n2.95
v0
v0
v1
v1
v1
v1
v1
o2
o2
o2
o2
o2
o2
o2
n4.61
v0
v0
v1
v1
v1
v1
v2
o2
o2
o2
o2
o2
o2
o2
n0.92
v0
v0
v1
v1
v1
v1
v3
o2
o2
o2
o2
o2
o2
o2
n9.67
v0
v0
v1
v1
v1
v2
v2
o2
o2
o2
o2
o2
o2
o2
n3.42
v0
v0
v1
v1
v2
v2
v3
o2
o2
o2
o2
o2
o2
o2
n0.76
v0
v0
v1
v1
v2
v2
v4
o2
o2
o2
o2
o2
o2
o2
n9.09
v0
v0
v1
v1
v2
v3
v3
o2
o2
o2
o2
o2
o2
o2
n1.07
v0
v0
v1
v1
v2
v3
v4
o2
o2
o2
o2
o2
o2
o2
n5.2
v0
v0
v1
v1
v2
v4
v4
o2
o2
o2
o2
o2
o2
o2
n3.39
v0
v0
v1
v1
v3
v3
v4
o2
o2
o2
o2
o2
o2
o2
n3.63
v0
v0
v1
v1
v4
v4
v4
o2
o2
o2
o2
o2
o2
o2
n6.78
v0
v0
v1
v2
v2
v2
v2
o2
o2
o2
o2
o2
o2
o2
n3.7
v0
v0
v1
v2
v2
v2
v4
o2
o2
o2
o2
o2
o2
o2
n3.94
v0
v0
v1
v2
v2
v3
v3
o16
o2
o2
o2
o2
o2
o2
o2
n0.66
v0
v0
v1
v2
v2
v3
v4
o2
o2
o2
o2
o2
o2
o2
n0.75
v0
v0
v1
v2
v2
v4
v4
o2
o2
o2
o2
o2
o2
o2
n4.16
v0
v0
v1
v2
v3
v3
v3
o2
o2
o2
o2
o2
o2
o2
n4.6
v0
v0
v1
v3
v3
v3
v4
o2
o2
o2
o2
o2
o2
o2
n5.59
v0
v0
v1
v3
v3
v4
v4
o2
o2
o2
o2
o2
o2
o2
n2.99
v0
v0
v1
v3
v4
v4
v4
o2
o2
o2
o2
o2
o2
o2
n8.39
v0
v0
v1
v4
v4
v4
v4
o2
o2
o2
o2
o2
o2
o2
n9.13
v0
v0
v2
v2
v2
v2
v2
o2
o2
o2
o2
o2
o2
o2
n0.49
v0
v0
v2
v2
v2
v2
v3
o2
o2
o2
o2
o2
o2
o2
n5.92
v0
v0
v2
v2
v2
v2
v4
o2
o2
o2
o2
o2
o2
o2
n2.75
v0
v0
v2
v2
v2
v4
v4
o2
o2
o2
o2
o2
o2
o2
n4.95
v0
v0
v2
v2
v3
v3
v3
o2
o2
o2
o2
o2
o2
o2
n2.71
v0
v0
v2
v3
v3
v3
v3
o2
o2
o2
o2
o2
o2
o2
n2.12
v0
v0
v2
v3
v3
v4
v4
o2
o2
o2
o2
o2
o2
o2
n7.45
v0
v0
v2
v3
v4
v4
v4
o2
o2
o2
o2
o2
o2
o2
n6.41
v0
v0
v2
v4
v4
v4
v4
o2
o2
o2
o2
o2
o2
o2
n4.81
v0
v0
v3
v3
v3
v3
v4
o2
o2
o2
o2
o2
o2
o2
n3.28
v0
v0
v3
v3
v4
v4
v4
o2
o2
o2
o2
o2
o2
o2
n7.01
v0
v0
v3
v4
v4
v4
v4
o2
o2
o2
o2
o2
o2
o2
n9.43
v0
v1
v1
v1
v1
v1
v4
o2
o2
o2
o2
o2
o2
o2
n5.61
v0
v1
v1
v1
v1
v2
v2
o2
o2
o2
o2
o2
o2
o2
n0.35
v0
v1
v1
v1
v1
v2
v3
o2
o2
o2
o2
o2
o2
o2
n2.06
v0
v1
v1
v1
v1
v3
v4
o2
o2
o2
o2
o2
o2
o2
n7.26
v0
v1
v1
v1
v1
v4
v4
o2
o2
o2
o2
o2
o2
o2
n2.68
v0
v1
v1
v1
v2
v2
v2
o2
o2
o2
o2
o2
o2
o2
n5.03
v0
v1
v1
v1
v2
v3
v4
o2
o2
o2
o2
o2
o2
o2
n2.35
v0
v1
v1
v1
v2
v4
v4
o2
o2
o2
o2
o2
o2
o2
n7.6
v0
v1
v1
v1
v3
v3
v4
o2
o2
o2
o2
o2
o2
o2
n5.87
v0
v1
v1
v1
v4
v4
v4
o2
o2
o2
o2
o2
o2
o2
n2.46
v0
v1
v1
v2
v2
v3
v3
o2
o2
o2
o2
o2
o2
o2
n0.97
v0
v1
v1
v2
v2
v4
v4
o16
o2
o2
o2
o2
o2
o2
o2
n0.86
v0
v1
v1
v2
v3
v3
v3
o2
o2
o2
o2
o2
o2
o2
n2.26
v0
v1
v1
v3
v3
v3
v3
o2
o2
o2
o2
o2
o2
o2
n5.12
v0
v1
v1
v3
v3
v3
v4
o2
o2
o2
o2
o2
o2
o2
n9.88
v0
v1
v2
v2
v2
v2
v4
o2
o2
o2
o2
o2
o2
o2
n9.8
v0
v1
v2
v2
v2
v3
v4
o16
o2
o2
o2
o2
o2
o2
o2
n2.26
v0
v1
v2
v2
v2
v4
v4
o2
o2
o2
o2
o2
o2
o2
n8.1
v0
v1
v2
v2
v3
v3
v3
o2
o2
o2
o2
o2
o2
o2
n6.67
v0
v1
v2
v2
v4
v4
v4
o2
o2
o2
o2
o2
o2
o2
n0.3
v0
v1
v2
v3
v3
v3
v3
o2
o2
o2
o2
o2
o2
o2
n7.01
v0
v1
v2
v3
v3
v4
v4
o2
o2
o2
o2
o2
o2
o2
n5.48
v0
v1
v2
v4
v4
v4
v4
o2
o2
o2
o2
o2
o2
o2
n2.57
v0
v1
v3
v3
v3
v4
v4
o2
o2
o2
o2
o2
o2
o2
n3.44
v0
v2
v2
v2
v2
v2
v3
o2
o2
o2
o2
o2
o2
o2
n7.02
v0
v2
v2
v2
v2
v2
v4
o2
o2
o2
o2
o2
o2
o2
n8.05
v0
v2
v2
v2
v2
v3
v3
o2
o2
o2
o2
o2
o2
o2
n1.68
v0
v2
v2
v2
v2
v3
v4
o2
o2
o2
o2
o2
o2
o2
n8.84
v0
v2
v2
v2
v2
v4
v4
o2
o2
o2
o2
o2
o2
o2
n2.01
v0
v2
v2
v2
v3
v3
v4
o2
o2
o2
o2
o2
o2
o2
n2.26
v0
v2
v2
v3
v3
v3
v3
o2
o2
o2
o2
o2
o2
o2
n1.52
v0
v2
v2
v3
v3
v3
v4
o2
o2
o2
o2
o2
o2
o2
n9.22
v0
v2
v2
v4
v4
v4
v4
o2
o2
o2
o2
o2
o2
o2
n2.09
v0
v2
v3
v3
v3
v4
v4
o2
o2
o2
o2
o2
o2
o2
n0.42
v0
v2
v3
v3
v4
v4
v4
o2
o2
o2
o2
o2
o2
o2
n4.77
v0
v2
v3
v4
v4
v4
v4
o2
o2
o2
o2
o2
o2
o2
n6.19
v0
v3
v3
v3
v3
v3
v4
o2
o2
o2
o2
o2
o2
o2
n0.14
v0
v3
v4
v4
v4
v4
v4
o16
o2
o2
o2
o2
o2
o2
o2
n2.13
v1
v1
v1
v1
v1
v1
v1
o2
o2
o2
o2
o2
o2
o2
n2.27
v1
v1
v1
v1
v1
v1
v2
o2
o2
o2
o2
o2
o2
o2
n7.39
v1
v1
v1
v1
v1
v1
v3
o2
o2
o2
o2
o2
o2
o2
n5.39
v1
v1
v1
v1
v1
v2
v2
o2
o2
o2
o2
o2
o2
o2
n6.97
v1
v1
v1
v1
v1
v2
v4
o2
o2
o2
o2
o2
o2
o2
n7.27
v1
v1
v1
v1
v1
v3
v3
o16
o2
o2
o2
o2
o2
o2
o2
n4.72
v1
v1
v1
v1
v1
v3
v4
o2
o2
o2
o2
o2
o2
o2
n8.37
v1
v1
v1
v1
v1
v4
v4
o2
o2
o2
o2
o2
o2
o2
n8.48
v1
v1
v1
v1
v2
v2
v2
o16
o2
o2
o2
o2
o2
o2
o2
n0.96
v1
v1
v1
v1
v2
v2
v4
o2
o2
o2
o2
o2
o2
o2
n4
v1
v1
v1
v1
v2
v3
v3
o2
o2
o2
o2
o2
o2
o2
n7.01
v1
v1
v1
v1
v2
v3
v4
o2
o2
o2
o2
o2
o2
o2
n9.3
v1
v1
v1
v1
v3
v3
v4
o2
o2
o2
o2
o2
o2
o2
n9.23
v1
v1
v1
v1
v4
v4
v4
o2
o2
o2
o2
o2
o2
o2
n5.73
v1
v1
v1
v2
v2
v2
v2
o2
o2
o2
o2
o2
o2
o2
n4.02
v1
v1
v1
v2
v2
v2
v3
o2
o2
o2
o2
o2
o2
o2
n7.68
v1
v1
v1
v2
v2
v3
v3
o2
o2
o2
o2
o2
o2
o2
n0.65
v1
v1
v1
v2
v2
v4
v4
o2
o2
o2
o2
o2
o2
o2
n7.17
v1
v1
v1
v2
v3
v3
v3
o2
o2
o2
o2
o2
o2
o2
n5.53
v1
v1
v1
v2
v3
v4
v4
o2
o2
o2
o2
o2
o2
o2
n5.12
v1
v1
v1
v3
v3
v3
v3
o2
o2
o2
o2
o2
o2
o2
n5.76
v1
v1
v2
v2
v2
v2
v3
o2
o2
o2
o2
o2
o2
o2
n5.69
v1
v1
v2
v2
v2
v2
v4
o2
o2
o2
o2
o2
o2
o2
n0.97
v1
v1
v2
v2
v2
v3
v3
o16
o2
o2
o2
o2
o2
o2
o2
n5.36
v1
v1
v2
v2
v2
v3
v4
o2
o2
o2
o2
o2
o2
o2
n7.54
v1
v1
v2
v2
v2
v4
v4
o2
o2
o2
o2
o2
o2
o2
n3.29
v1
v1
v2
v2
v3
v3
v4
o2
o2
o2
o2
o2
o2
o2
n4.21
v1
v1
v2
v2
v3
v4
v4
o2
o2
o2
o2
o2
o2
o2
n4.52
v1
v1
v3
v3
v4
v4
v4
o2
o2
o2
o2
o2
o2
o2
n3.22
v1
v2
v2
v2
v2
v2
v3
o2
o2
o2
o2
o2
o2
o2
n2.49
v1
v2
v2
v2
v2
v2
v4
o2
o2
o2
o2
o2
o2
o2
n5.94
v1
v2
v2
v2
v2
v3
v3
o16
o2
o2
o2
o2
o2
o2
o2
n2.62
v1
v2
v2
v2
v2
v3
v4
o2
o2
o2
o2
o2
o2
o2
n7.22
v1
v2
v2
v2
v2
v4
v4
o2
o2
o2
o2
o2
o2
o2
n3.33
v1
v2
v2
v3
v3
v3
v3
o2
o2
o2
o2
o2
o2
o2
n7.29
v1
v2
v2
v3
v3
v4
v4
o2
o2
o2
o2
o2
o2
o2
n6.2
v1
v2
v2
v4
v4
v4
v4
o2
o2
o2
o2
o2
o2
o2
n5.49
v1
v2
v3
v3
v3
v3
v3
o2
o2
o2
o2
o2
o2
o2
n1.72
v1
v2
v3
v3
v3
v3
v4
o2
o2
o2
o2
o2
o2
o2
n4.74
v1
v3
v3
v3
v3
v3
v3
o2
o2
o2
o2
o2
o2
o2
n2.31
v1
v3
v3
v3
v3
v4
v4
o2
o2
o2
o2
o2
o2
o2
n0.93
v2
v2
v2
v2
v2
v2
v2
o2
o2
o2
o2
o2
o2
o2
n9.03
v2
v2
v2
v2
v2
v3
v3
o2
o2
o2
o2
o2
o2
o2
n6.21
v2
v2
v2
v2
v3
v3
v3
o16
o2
o2
o2
o2
o2
o2
o2
n3.71
v2
v2
v2
v3
v3
v3
v3
o2
o2
o2
o2
o2
o2
o2
n0.22
v2
v2
v2
v3
v3
v3
v4
o2
o2
o2
o2
o2
o2
o2
n2.88
v2
v2
v2
v3
v4
v4
v4
o2
o2
o2
o2
o2
o2
o2
n8.49
v2
v2
v2
v4
v4
v4
v4
o2
o2
o2
o2
o2
o2
o2
n5.27
v2
v2
v3
v3
v3
v3
v4
o2
o2
o2
o2
o2
o2
o2
n1.8
v2
v2
v3
v4
v4
v4
v4
o2
o2
o2
o2
o2
o2
o2
n9.21
v2
v2
v4
v4
v4
v4
v4
o2
o2
o2
o2
o2
o2
o2
n5.85
v2
v3
v3
v3
v3
v3
v3
o2
o2
o2
o2
o2
o2
o2
n1.72
v2
v3
v3
v3
v3
v3
v4
o2
o2
o2
o2
o2
o2
o2
n5.1
v2
v3
v3
v3
v4
v4
v4
o2
o2
o2
o2
o2
o2
o2
n5.64
v2
v4
v4
v4
v4
v4
v4
o2
o2
o2
o2
o2
o2
o2
n9.91
v3
v3
v3
v3
v3
v3
v3
o2
o2
o2
o2
o2
o2
o2
n6.56
v3
v3
v3
v3
v3
v3
v4
o2
o2
o2
o2
o2
o2
o2
n1.1
v3
v3
v3
v3
v3
v4
v4
o2
o2
o2
o2
o2
o2
o2
n5.98
v3
v3
v3
v3
v4
v4
v4
o2
o2
o2
o2
o2
o2
o2
n0.82
v3
v3
v4
v4
v4
v4
v4
o2
o2
o2
o2
o2
o2
o2
n2.27
v3
v4
v4
v4
v4
v4
v4
k4
5
10
15
20
J0 5
0 0.99
1 1.67
2 1.01
3 3.55
4 3.05
J1 5
0 1.18
1 3.45
2 8.81
3 4.18
4 2.38
J2 5
0 7.3
1 4.35
2 4.89
3 6.08
4 2.45
J3 5
0 4.92
1 5.66
2 2.78
3 0.85
4 9.9
J4 5
0 4.05
1 6.1
2 9.56
3 1.75
4 4.5
G0 5
0 8.06
1 9.19
2 2.2
3 3.45
4 4.68
